nBusiness = 70;
nMeetings = 154;
nTables = 12;
nTotalSlots = 21;
nMorningSlots = 13;

requested = [|1, 2,1, 
|1, 3,1, 
|1, 4,1, 
|1, 5,1, 
|1, 6,1, 
|1, 7,1, 
|1, 8,1, 
|1, 9,1, 
|1, 10,1, 
|6, 26,2, 
|11, 12,3, 
|11, 13,3, 
|11, 14,3, 
|11, 19,3, 
|11, 20,3, 
|11, 21,3, 
|11, 22,3, 
|11, 23,3, 
|15, 2,1, 
|15, 10,1, 
|15, 16,1, 
|15, 17,1, 
|15, 18,1, 
|15, 19,1, 
|24, 18,1, 
|24, 19,1, 
|25, 3,1, 
|25, 4,1, 
|25, 5,1, 
|25, 6,1, 
|25, 7,1, 
|25, 8,1, 
|25, 24,1, 
|27, 3,1, 
|27, 5,1, 
|27, 6,1, 
|27, 8,1, 
|27, 19,1, 
|27, 28,1, 
|27, 29,1, 
|28, 31,1, 
|30, 31,1, 
|32, 31,2, 
|33, 26,2, 
|33, 31,2, 
|39, 12,1, 
|39, 18,1, 
|39, 42,1, 
|40, 7,3, 
|40, 8,3, 
|40, 10,3, 
|40, 18,3, 
|40, 29,3, 
|40, 36,3, 
|40, 37,3, 
|40, 38,3, 
|40, 39,3, 
|41, 10,1, 
|41, 32,1, 
|41, 37,1, 
|41, 38,1, 
|43, 12,1, 
|44, 35,3, 
|44, 45,3, 
|44, 46,3, 
|44, 47,3, 
|44, 48,3, 
|49, 4,1, 
|49, 9,1, 
|49, 10,1, 
|49, 13,1, 
|49, 34,1, 
|49, 46,1, 
|49, 47,1, 
|49, 50,1, 
|49, 51,1, 
|49, 52,1, 
|53, 6,1, 
|53, 7,1, 
|53, 30,1, 
|53, 32,1, 
|53, 33,1, 
|53, 35,1, 
|53, 36,1, 
|53, 38,1, 
|53, 48,1, 
|53, 54,1, 
|53, 55,1, 
|56, 2,3, 
|56, 3,3, 
|56, 10,3, 
|56, 14,3, 
|56, 16,3, 
|56, 24,3, 
|56, 28,3, 
|56, 29,3, 
|56, 42,3, 
|56, 46,3, 
|57, 26,1, 
|57, 47,1, 
|57, 58,1, 
|57, 59,1, 
|57, 60,1, 
|57, 61,1, 
|62, 4,1, 
|62, 12,1, 
|62, 13,1, 
|62, 23,1, 
|62, 24,1, 
|62, 39,1, 
|62, 42,1, 
|62, 46,1, 
|62, 54,1, 
|64, 19,1, 
|64, 29,1, 
|64, 46,1, 
|64, 50,1, 
|64, 52,1, 
|64, 63,1, 
|64, 68,1, 
|64, 69,1, 
|65, 14,3, 
|65, 24,3, 
|65, 26,3, 
|65, 33,3, 
|65, 38,3, 
|65, 45,3, 
|65, 46,3, 
|65, 52,3, 
|65, 54,3, 
|65, 60,3, 
|65, 63,3, 
|65, 64,3, 
|66, 2,3, 
|66, 3,3, 
|66, 4,3, 
|66, 9,3, 
|66, 18,3, 
|66, 24,3, 
|66, 26,3, 
|66, 29,3, 
|66, 34,3, 
|66, 39,3, 
|66, 45,3, 
|66, 50,3, 
|66, 59,3, 
|66, 63,3, 
|66, 67,3, 
|70, 6,1, 
|70, 7,1, 
|70, 8,1, 
|70, 32,1, 
|70, 34,1, 
|70, 35,1, 
|];

meetingsxBusiness = [{1,2,3,4,5,6,7,8,9,10},
{1,2,20,90,135},
{1,3,28,35,91,136},
{1,4,29,69,106,137},
{1,5,30,36},
{1,6,11,31,37,79,150},
{1,7,32,50,80,151},
{1,8,33,38,51,152},
{1,9,70,138},
{1,10,21,52,59,71,92},
{1,12,13,14,15,16,17,18,19},
{1,12,47,63,107},
{1,13,72,108},
{1,14,93,123},
{1,20,21,22,23,24,25},
{1,22,94},
{1,23},
{1,24,26,48,53,139},
{1,15,25,27,39,115},
{1,16},
{1,17},
{1,18},
{1,19,109},
{1,26,27,34,95,110,124,140},
{1,28,29,30,31,32,33,34},
{1,11,45,100,125,141},
{1,35,36,37,38,39,40,41},
{1,40,42,96},
{1,41,54,97,116,142},
{1,43,81},
{1,42,43,44,46},
{1,44,60,82,153},
{1,45,46,83,126},
{1,73,143,154},
{1,64,84,155},
{1,55,85},
{1,56,61},
{1,57,62,86,127},
{1,47,48,49,58,111,144},
{1,50,51,52,53,54,55,56,57,58},
{1,59,60,61,62},
{1,49,98,112},
{1,63},
{1,64,65,66,67,68},
{1,65,128,145},
{1,66,74,99,113,117,129},
{1,67,75,101},
{1,68,87},
{1,69,70,71,72,73,74,75,76,77,78},
{1,76,118,146},
{1,77},
{1,78,119,130},
{1,79,80,81,82,83,84,85,86,87,88,89},
{1,88,114,131},
{1,89},
{1,90,91,92,93,94,95,96,97,98,99},
{1,100,101,102,103,104,105},
{1,102},
{1,103,147},
{1,104,132},
{1,105},
{1,106,107,108,109,110,111,112,113,114},
{1,120,133,148},
{1,115,116,117,118,119,120,121,122,134},
{1,123,124,125,126,127,128,129,130,131,132,133,134},
{1,135,136,137,138,139,140,141,142,143,144,145,146,147,148,149},
{1,149},
{1,121},
{1,122},
{1,150,151,152,153,154,155}];

nMeetingsBusiness = [9,4,5,5,3,6,5,5,3,6,8,4,3,3,6,2,1,5,5,1,1,1,2,7,7,5,7,3,5,2,4,4,4,3,3,2,2,4,6,9,4,3,1,5,3,6,3,2,10,3,1,3,11,3,1,10,6,1,2,2,1,9,3,9,12,15,1,1,1,6];

forbidden = [{0},
{0},
{0,17},
{0},
{0},
{0},
{0,18},
{0,6},
{0,9},
{0,14},
{0,16},
{0},
{0},
{0,11},
{0},
{0,12},
{0},
{0},
{0},
{0},
{0},
{0,16},
{0},
{0,13},
{0},
{0,4},
{0},
{0},
{0},
{0,17},
{0,18},
{0,19},
{0},
{0,7},
{0,5},
{0},
{0},
{0},
{0,11},
{0},
{0},
{0},
{0},
{0},
{0},
{0},
{0,14},
{0},
{0},
{0},
{0},
{0,7},
{0},
{0},
{0},
{0},
{0},
{0},
{0,4},
{0},
{0,13},
{0},
{0},
{0},
{0},
{0},
{0,5},
{0},
{0},
{0}];

fixed = [0,9,2,0,0,0,0,4,1,0,0,0,21,0,0,9,10,17,4,0,3,0,0,0,7,0,0,7,2,0,0,0,0,8,5,0,11,0,0,1,12,0,0,0,0,13,0,0,3,0,0,16,0,20,0,21,19,6,10,0,11,9,0,0,20,0,0,0,0,0,0,2,3,6,0,13,0,0,0,1,0,0,0,10,0,0,0,0,0,20,0,9,0,0,0,14,6,0,0,0,10,13,0,1,10,0,0,0,0,0,12,0,0,0,0,0,1,11,10,0,0,0,10,20,0,0,0,11,0,0,0,14,17,9,0,0,13,0,0,21,0,0,7,4,17,2,0,0,6,0,10,0,0,0];

precedences = [{},
{},
{},
{},
{},
{},
{},
{},
{},
{},
{},
{},
{},
{},
{},
{},
{},
{},
{},
{},
{},
{},
{},
{},
{},
{},
{},
{},
{},
{},
{},
{},
{},
{},
{},
{},
{},
{},
{},
{},
{},
{},
{},
{},
{},
{},
{},
{},
{},
{},
{},
{},
{},
{},
{},
{},
{},
{},
{},
{},
{},
{},
{},
{},
{},
{},
{},
{},
{},
{},
{},
{},
{},
{},
{},
{},
{},
{},
{},
{},
{},
{},
{},
{},
{},
{},
{},
{},
{},
{},
{},
{},
{},
{},
{},
{},
{},
{},
{},
{},
{},
{},
{},
{},
{},
{},
{},
{},
{},
{},
{},
{},
{},
{},
{},
{},
{},
{},
{},
{},
{},
{},
{},
{},
{},
{},
{},
{},
{},
{},
{},
{},
{},
{},
{},
{},
{},
{},
{},
{},
{},
{},
{},
{},
{},
{},
{},
{},
{},
{},
{},
{},
{},
{}];

